Version identifier: 20.1.0.0 | 2020-11-10 | 9bedb6d68
Tried aggregator 3 times.
MIP Presolve eliminated 1894 rows and 951 columns.
MIP Presolve modified 4740 coefficients.
Aggregator did 182 substitutions.
Reduced MIP has 2733 rows, 2182 columns, and 8938 nonzeros.
Reduced MIP has 439 binaries, 1743 generals, 0 SOSs, and 0 indicators.
Presolve time = 0.03 sec. (13.14 ticks)
Probing fixed 60 vars, tightened 666 bounds.
Probing time = 0.00 sec. (1.91 ticks)
Tried aggregator 2 times.
Detecting symmetries...
MIP Presolve eliminated 1138 rows and 126 columns.
MIP Presolve modified 263 coefficients.
Aggregator did 42 substitutions.
Reduced MIP has 1553 rows, 2014 columns, and 5042 nonzeros.
Reduced MIP has 647 binaries, 1367 generals, 0 SOSs, and 0 indicators.
Presolve time = 0.02 sec. (7.63 ticks)
Probing time = 0.00 sec. (0.42 ticks)
Clique table members: 65.
MIP emphasis: balance optimality and feasibility.
MIP search method: dynamic search.
Parallel mode: deterministic, using up to 24 threads.
Root relaxation solution time = 0.02 sec. (4.31 ticks)

        Nodes                                         Cuts/
   Node  Left     Objective  IInf  Best Integer    Best Bound    ItCnt     Gap

      0     0        0.0000    74                      0.0000      443         
*     0+    0                           21.0000        0.0000           100.00%
      0     0        0.0000    91       21.0000     Cuts: 201      628  100.00%
*     0+    0                           20.0000        0.0000           100.00%
*     0+    0                           14.0000        0.0000           100.00%
      0     0        0.0039   565       14.0000     Cuts: 196     1655   50.00%
*     0+    0                           13.0000        7.0000            46.15%
      0     2        0.0039   450       13.0000       12.0000     1655    7.69%
Elapsed time = 1.15 sec. (186.39 ticks, tree = 0.02 MB, solutions = 4)
*   225     6      integral     0       12.0000       12.0000    28482    0.00%

Cover cuts applied:  11
Implied bound cuts applied:  165
Flow cuts applied:  5
Mixed integer rounding cuts applied:  10
Zero-half cuts applied:  39
Lift and project cuts applied:  9
Gomory fractional cuts applied:  18

Root node processing (before b&c):
  Real time             =    1.11 sec. (185.73 ticks)
Parallel b&c, 24 threads:
  Real time             =    1.09 sec. (74.47 ticks)
  Sync time (average)   =    0.93 sec.
  Wait time (average)   =    0.00 sec.
                          ------------
Total (root+branch&cut) =    2.19 sec. (260.20 ticks)

Solution status = Optimal
Solution LB = 12
Solution UB = 12
Runtime = 2.19838 seconds
	Command being timed: "/home/min/git_repos/CS598MEBProject/CNT-ILP/build/cnt -s 2 ./output/k8_n30/simC_c1_k8_n30_u3_s1_del04.input-right.cnp"
	User time (seconds): 29.25
	System time (seconds): 0.24
	Percent of CPU this job got: 1323%
	Elapsed (wall clock) time (h:mm:ss or m:ss): 0:02.22
	Average shared text size (kbytes): 0
	Average unshared data size (kbytes): 0
	Average stack size (kbytes): 0
	Average total size (kbytes): 0
	Maximum resident set size (kbytes): 157088
	Average resident set size (kbytes): 0
	Major (requiring I/O) page faults: 0
	Minor (reclaiming a frame) page faults: 56610
	Voluntary context switches: 10378
	Involuntary context switches: 3604
	Swaps: 0
	File system inputs: 0
	File system outputs: 16
	Socket messages sent: 0
	Socket messages received: 0
	Signals delivered: 0
	Page size (bytes): 4096
	Exit status: 0
